16 16 59 16 16 7 7 59 7 16 59 59 59 16 7 16 59 16 7 7 59 16 16 16 7 7 7 16 7 16 59 59 16 59 16 7 16 59 16 16 16 16 16 59 7 59 59 16 16 7 16 59 7 16 59 59 59 16 59 59 7 59 7 16 16 7 16 16 59 7 59 59 16 59 59 59 16 59 16 16 7 7 16 7 59 16 59 16 59 59 16 16 7 16 59 16 16 16 59 59 
